
Gurobi 7.5.2 (linux64) logging started Sat Jun 23 17:49:58 2018

Changed value of parameter LogFile to result/ilp/simNo_7-n_100-m_40-s_4-minVAF_0.05-cov_2000-k_1-fn_0.10-fp_0.0001-na_0.15.ILP.gurobiSolverLog
   Prev: gurobi.log  Default: 
Changed value of parameter TimeLimit to 86400.0
   Prev: 1e+100  Min: 0.0  Max: 1e+100  Default: 1e+100
Optimize a model with 1265601 rows, 330440 columns and 3489120 nonzeros
Variable types: 0 continuous, 330440 integer (330440 binary)
Coefficient statistics:
  Matrix range     [3e-03, 4e+00]
  Objective range  [3e-01, 9e+00]
  Bounds range     [1e+00, 1e+00]
  RHS range        [4e-01, 2e+00]
Found heuristic solution: objective -18044.56479
Presolve removed 336306 rows and 214357 columns (presolve time = 7s) ...
Presolve removed 336792 rows and 214357 columns (presolve time = 11s) ...
Presolve removed 337330 rows and 214357 columns (presolve time = 15s) ...
Presolve removed 337815 rows and 214357 columns (presolve time = 20s) ...
Presolve removed 337815 rows and 214357 columns (presolve time = 25s) ...
Presolve removed 337815 rows and 214357 columns (presolve time = 30s) ...
Presolve removed 337815 rows and 214357 columns (presolve time = 35s) ...
Presolve removed 337815 rows and 214357 columns (presolve time = 40s) ...
Presolve removed 337815 rows and 214357 columns (presolve time = 49s) ...
Presolve removed 337815 rows and 214357 columns (presolve time = 51s) ...
Presolve removed 337815 rows and 214357 columns
Presolve time: 51.13s
Presolved: 927786 rows, 116083 columns, 2573621 nonzeros
Variable types: 0 continuous, 116083 integer (116083 binary)
Presolved: 116083 rows, 1043869 columns, 2689704 nonzeros

Presolve removed 116083 rows and 1043869 columns

Root simplex log...

Iteration    Objective       Primal Inf.    Dual Inf.      Time
       0    6.7454221e+00   0.000000e+00   1.136520e+05     63s
    8308   -1.6943786e+02   0.000000e+00   8.755240e+05     65s
   20341   -2.4532295e+02   0.000000e+00   9.353670e+06     70s
   30083   -2.9404436e+02   0.000000e+00   1.832701e+05     75s
   40970   -3.4081133e+02   0.000000e+00   4.390467e+05     80s
   50138   -3.5739421e+02   0.000000e+00   2.048691e+04     85s
   52573   -3.5979742e+02   0.000000e+00   0.000000e+00     90s
   52573   -3.5979742e+02   0.000000e+00   0.000000e+00     93s

Root relaxation: objective -3.597974e+02, 52573 iterations, 37.48 seconds
Total elapsed time = 142.22s
Total elapsed time = 166.13s
Total elapsed time = 192.07s
Total elapsed time = 219.94s

    Nodes    |    Current Node    |     Objective Bounds      |     Work
 Expl Unexpl |  Obj  Depth IntInf | Incumbent    BestBd   Gap | It/Node Time

     0     0 -359.79742    0  887 -18044.565 -359.79742  98.0%     -  230s
H    0     0                    -387.6378987 -359.79742  7.18%     -  246s
     0     0 -361.99473    0  922 -387.63790 -361.99473  6.62%     -  323s
     0     0 -361.99473    0  922 -387.63790 -361.99473  6.62%     -  348s
     0     0 -364.19195    0  882 -387.63790 -364.19195  6.05%     -  443s
     0     0 -364.19195    0  881 -387.63790 -364.19195  6.05%     -  460s
     0     0 -366.38918    0  944 -387.63790 -366.38918  5.48%     -  542s
     0     0 -366.38918    0  925 -387.63790 -366.38918  5.48%     -  564s
     0     0 -367.39072    0 1548 -387.63790 -367.39072  5.22%     -  701s
     0     0 -367.39072    0 1551 -387.63790 -367.39072  5.22%     -  736s
     0     0 -370.66084    0 1551 -387.63790 -370.66084  4.38%     -  827s
     0     0 -370.66084    0 1532 -387.63790 -370.66084  4.38%     -  855s
     0     0 -373.04117    0 1439 -387.63790 -373.04117  3.77%     -  894s
     0     0 -373.04117    0 1434 -387.63790 -373.04117  3.77%     -  914s
     0     0 -374.20449    0  763 -387.63790 -374.20449  3.47%     -  944s
     0     0 -374.20449    0  796 -387.63790 -374.20449  3.47%     -  962s
     0     0 -375.30311    0  811 -387.63790 -375.30311  3.18%     -  987s
     0     0 -375.30311    0  810 -387.63790 -375.30311  3.18%     - 1005s
     0     0 -375.55316    0  283 -387.63790 -375.55316  3.12%     - 1028s
     0     0 -375.55316    0  284 -387.63790 -375.55316  3.12%     - 1043s
     0     0 -375.55316    0  247 -387.63790 -375.55316  3.12%     - 1055s
     0     0 -375.55316    0  292 -387.63790 -375.55316  3.12%     - 1069s
     0     0 -375.55316    0  337 -387.63790 -375.55316  3.12%     - 1085s
     0     0 -375.91937    0  342 -387.63790 -375.91937  3.02%     - 1104s
     0     0 -376.21233    0  358 -387.63790 -376.21233  2.95%     - 1117s
     0     0 -376.21233    0  359 -387.63790 -376.21233  2.95%     - 1127s
     0     0 -376.76164    0  363 -387.63790 -376.76164  2.81%     - 1350s
     0     0 -376.76742    0  371 -387.63790 -376.76742  2.80%     - 1372s
     0     0 -377.97011    0  364 -387.63790 -377.97011  2.49%     - 1391s
     0     0 -378.40956    0  363 -387.63790 -378.40956  2.38%     - 1411s
     0     0 -378.40956    0  356 -387.63790 -378.40956  2.38%     - 1421s
     0     0 -378.40956    0  336 -387.63790 -378.40956  2.38%     - 1436s
     0     0 -378.40956    0  312 -387.63790 -378.40956  2.38%     - 1452s
     0     0 -379.44824    0  361 -387.63790 -379.44824  2.11%     - 1474s
     0     0 -379.50817    0  367 -387.63790 -379.50817  2.10%     - 1495s
     0     0 -379.50817    0  363 -387.63790 -379.50817  2.10%     - 1503s
     0     0 -380.70819    0  369 -387.63790 -380.70819  1.79%     - 1526s
     0     0 -381.04622    0  373 -387.63790 -381.04622  1.70%     - 1547s
     0     0 -381.04622    0  373 -387.63790 -381.04622  1.70%     - 1557s
     0     0 -381.04622    0  304 -387.63790 -381.04622  1.70%     - 1573s
     0     0 -381.67400    0  372 -387.63790 -381.67400  1.54%     - 1595s
     0     0 -381.67400    0  368 -387.63790 -381.67400  1.54%     - 1604s
     0     0 -381.95096    0  367 -387.63790 -381.95096  1.47%     - 1622s
     0     0 -382.00751    0  376 -387.63790 -382.00751  1.45%     - 1641s
     0     0 -382.00751    0  376 -387.63790 -382.00751  1.45%     - 1649s
     0     0 -382.20266    0  370 -387.63790 -382.20266  1.40%     - 1667s
     0     0 -382.22935    0  363 -387.63790 -382.22935  1.40%     - 1687s
     0     0 -382.24471    0  369 -387.63790 -382.24471  1.39%     - 1699s
     0     0 -382.24471    0  369 -387.63790 -382.24471  1.39%     - 1708s
     0     0 -382.41949    0  360 -387.63790 -382.41949  1.35%     - 1722s
     0     0 -382.69414    0  354 -387.63790 -382.69414  1.28%     - 1739s
     0     0 -382.69414    0  363 -387.63790 -382.69414  1.28%     - 1748s
     0     0 -382.69414    0  368 -387.63790 -382.69414  1.28%     - 1762s
     0     0 -382.69414    0  379 -387.63790 -382.69414  1.28%     - 1777s
     0     0 -382.90013    0  375 -387.63790 -382.90013  1.22%     - 1799s
     0     0 -383.20743    0  376 -387.63790 -383.20743  1.14%     - 1822s
     0     0 -383.41511    0  370 -387.63790 -383.41511  1.09%     - 1839s
     0     0 -383.48048    0  376 -387.63790 -383.48048  1.07%     - 1852s
     0     0 -383.48656    0  378 -387.63790 -383.48656  1.07%     - 1863s
     0     0 -383.48656    0  379 -387.63790 -383.48656  1.07%     - 1873s
     0     0 -383.62366    0  380 -387.63790 -383.62366  1.04%     - 1893s
     0     0 -383.66955    0  374 -387.63790 -383.66955  1.02%     - 1911s
     0     0 -383.71736    0  379 -387.63790 -383.71736  1.01%     - 1923s
     0     0 -383.71736    0  379 -387.63790 -383.71736  1.01%     - 1932s
     0     0 -384.18512    0  370 -387.63790 -384.18512  0.89%     - 1947s
     0     0 -384.38177    0  372 -387.63790 -384.38177  0.84%     - 1966s
     0     0 -384.42657    0  373 -387.63790 -384.42657  0.83%     - 1978s
     0     0 -384.43062    0  382 -387.63790 -384.43062  0.83%     - 1990s
     0     0 -384.43649    0  383 -387.63790 -384.43649  0.83%     - 2000s
     0     0 -384.43649    0  385 -387.63790 -384.43649  0.83%     - 2009s
     0     0 -384.44998    0  380 -387.63790 -384.44998  0.82%     - 2024s
     0     0 -384.47649    0  378 -387.63790 -384.47649  0.82%     - 2038s
     0     0 -384.49536    0  379 -387.63790 -384.49536  0.81%     - 2046s
     0     0 -384.50852    0  380 -387.63790 -384.50852  0.81%     - 2053s
     0     0 -384.52963    0  380 -387.63790 -384.52963  0.80%     - 2063s
     0     0 -384.53040    0  380 -387.63790 -384.53040  0.80%     - 2072s
     0     0 -384.53040    0  380 -387.63790 -384.53040  0.80%     - 2086s
     0     0 -384.53040    0  366 -387.63790 -384.53040  0.80%     - 2168s
     0     2 -384.53947    0  365 -387.63790 -384.53947  0.80%     - 2289s
     1     3 -384.87102    1  363 -387.63790 -384.55689  0.79%   629 2297s
     2     2     cutoff    1      -387.63790 -384.87873  0.71%   688 2305s
     3     3 -385.12678    2  324 -387.63790 -385.04852  0.67%   642 2312s
     4     4 -385.44067    3  313 -387.63790 -385.04852  0.67%   526 2315s
     6     4 -386.53929    4  254 -387.63790 -385.04852  0.67%   434 2322s
     8     4 -386.53929    5  194 -387.63790 -385.04852  0.67%   367 2327s
    12     0     cutoff    2      -387.63790 -387.63790  0.00%   303 2332s

Cutting planes:
  Gomory: 1
  Zero half: 137

Explored 13 nodes (119751 simplex iterations) in 2333.39 seconds
Thread count was 1 (of 80 available processors)

Solution count 2: -387.638 -18044.6 

Optimal solution found (tolerance 1.00e-04)
Best objective -3.876378987168e+02, best bound -3.876378987168e+02, gap 0.0000%
